NAME : XML100_2271_23
DIMENSION : 101
NB_CLUSTERS : 4
CLUSTERING_ALG : DBSCAN
CLUSTERING_PARAMS : eps(145), minSamples(3)
CLUSTERS
1 0
2 1 3 4 5 6 8 10 14 15 19 21 22 23 24 25 27 28 31 33 34 35 36 37 39 41 42 43 45 47 51 53 55 56 57 58 59 61 63 64 69 72 73 74 75 78 80 81 82 84 85 86 88 91 92 94 95 96
3 2 7 9 11 12 13 16 20 26 40 44 46 48 54 62 65 66 67 71 79 83 87 98 99
4 17 18 29 30 32 38 49 50 52 60 68 70 76 77 89 90 93 97 100
EOF